
List of user-set options:

                                    Name   Value                used
                           compl_inf_tol = 1                     yes
                         constr_viol_tol = 1                     yes
                            dual_inf_tol = 1000                  yes
                           linear_solver = ma97                  yes
                              ma86_small = 1e-30                  no
                                  ma86_u = 0.0001                 no
                              ma97_order = best                  yes
                              ma97_small = 1e-30                 yes
                            ma97_switch1 = at_start              yes
                            ma97_switch2 = od_hd_reuse           yes
                                  ma97_u = 1e-06                 yes
                               ma97_umax = 0.5                   yes
                                max_iter = 2000                  yes
                    max_refinement_steps = 20                    yes
                    min_refinement_steps = 5                     yes
                                 mu_init = 1e-06                 yes
           mu_superlinear_decrease_power = 1.25                  yes
                   nlp_scaling_min_value = 1e-08                 yes
                        option_file_name = Preset_Case:_196_NCP.opt  yes
                             output_file = ./tmp/Preset_Case:_196_NCP.output  yes
                      print_user_options = yes                   yes
        required_infeasibility_reduction = 1                      no
                                     tol = 1e-08                 yes
                   warm_start_bound_frac = 1e-20                 yes
                   warm_start_bound_push = 1e-20                 yes
                   warm_start_init_point = yes                   yes
              warm_start_mult_bound_push = 1e-20                 yes
                warm_start_mult_init_max = 1e+40                 yes
             warm_start_slack_bound_frac = 1e-20                 yes
             warm_start_slack_bound_push = 1e-20                 yes

******************************************************************************
This program contains Ipopt, a library for large-scale nonlinear optimization.
 Ipopt is released as open source code under the Eclipse Public License (EPL).
         For more information visit http://projects.coin-or.org/Ipopt
******************************************************************************

This is Ipopt version 3.12.10, running with linear solver ma97.

Number of nonzeros in equality constraint Jacobian...:   117140
Number of nonzeros in inequality constraint Jacobian.:      213
Number of nonzeros in Lagrangian Hessian.............:    47462

Total number of variables............................:    29971
                     variables with only lower bounds:    11312
                variables with lower and upper bounds:    15132
                     variables with only upper bounds:        0
Total number of equality constraints.................:    29864
Total number of inequality constraints...............:       25
        inequality constraints with only lower bounds:        4
   inequality constraints with lower and upper bounds:        0
        inequality constraints with only upper bounds:       21

iter    objective    inf_pr   inf_du lg(mu)  ||d||  lg(rg) alpha_du alpha_pr  ls
   0 -4.3217425e-02 3.24e-01 1.00e+00  -6.0 0.00e+00    -  0.00e+00 0.00e+00   0
   1r-4.3217425e-02 3.24e-01 9.99e+02  -0.5 0.00e+00  -4.0 0.00e+00 4.39e-23R 17
   2r-4.3225155e-02 3.24e-01 3.24e+03  -0.5 5.75e+11    -  1.26e-14 2.28e-14f  1
   3r-4.3230719e-02 3.24e-01 3.29e+03  -0.5 1.74e+05    -  1.77e-08 5.95e-09f  1
   4r-4.3249845e-02 3.24e-01 3.29e+03  -0.5 1.05e+05    -  1.14e-08 4.80e-08f  1
   5r-4.3260195e-02 3.24e-01 3.30e+03  -0.5 7.67e+04    -  1.80e-07 3.89e-08f  1
   6r-4.3367332e-02 3.24e-01 3.26e+03  -0.5 6.47e+04    -  1.20e-07 7.39e-07f  1
   7r-4.3401161e-02 3.24e-01 3.33e+03  -0.5 4.68e+04    -  1.71e-06 4.87e-07f  1
   8r-4.3782361e-02 3.23e-01 3.16e+03  -0.5 3.34e+04    -  3.73e-06 9.83e-06f  1
   9 -4.3782014e-02 3.20e-01 1.17e+04  -6.0 8.74e+01    -  1.02e-06 1.20e-02h  1
iter    objective    inf_pr   inf_du lg(mu)  ||d||  lg(rg) alpha_du alpha_pr  ls
  10 -4.3768841e-02 3.16e-01 1.16e+04  -6.0 9.43e+01    -  1.41e-01 1.14e-02h  1
  11r-4.3768841e-02 3.16e-01 9.99e+02  -0.5 0.00e+00    -  0.00e+00 2.73e-07R  4
  12r-4.3769456e-02 3.16e-01 3.29e+03  -0.5 3.00e+03    -  9.38e-05 4.35e-07f  1
  13 -4.3769445e-02 3.16e-01 1.29e+06  -6.0 9.34e+01    -  3.18e-02 1.05e-05h  1
  14 -4.3771534e-02 3.16e-01 5.23e+07  -6.0 4.07e+02    -  1.30e-05 5.28e-04h  1
  15r-4.3771534e-02 3.16e-01 9.99e+02  -0.5 0.00e+00    -  0.00e+00 1.02e-07R  2
  16r-4.3771583e-02 3.16e-01 2.42e+03  -0.5 2.80e+03    -  6.21e-06 2.95e-07f  1
  17r-4.3771583e-02 3.16e-01 9.99e+02  -0.5 0.00e+00    -  0.00e+00 1.31e-07R  2
  18r-4.3771597e-02 3.16e-01 9.99e+02  -0.5 2.79e+03    -  1.13e-05 3.54e-08f  1
  19 -4.3771586e-02 3.16e-01 1.85e+06  -6.0 9.32e+01    -  1.35e-01 1.13e-05h  1
iter    objective    inf_pr   inf_du lg(mu)  ||d||  lg(rg) alpha_du alpha_pr  ls
  20 -4.3786418e-02 3.16e-01 6.48e+06  -6.0 3.25e+03    -  1.88e-05 6.57e-05h  1
  21 -4.4072301e-02 3.15e-01 6.47e+06  -6.0 2.57e+03    -  3.91e-04 1.72e-03h  1
  22r-4.4072301e-02 3.15e-01 9.99e+02  -0.5 0.00e+00    -  0.00e+00 2.61e-07R  2
  23r-4.4073193e-02 3.15e-01 9.99e+02  -0.5 2.15e+05    -  5.96e-09 3.04e-08f  2
  24r-4.4074757e-02 3.15e-01 3.83e+03  -0.5 2.95e+03    -  8.87e-05 1.34e-06f  1
  25r-4.4074757e-02 3.15e-01 9.99e+02  -0.5 0.00e+00    -  0.00e+00 2.25e-07R  2
  26r-4.4074753e-02 3.15e-01 9.99e+02  -0.5 2.85e+03    -  1.19e-05 5.54e-08f  2
  27 -4.4074733e-02 3.15e-01 8.31e+03  -6.0 9.29e+01    -  1.48e-01 1.78e-05h  1
  28 -4.4084543e-02 3.15e-01 5.27e+04  -6.0 1.45e+03    -  2.79e-03 5.03e-04h  1
  29 -4.4237514e-02 3.11e-01 5.11e+04  -6.0 1.40e+03    -  3.38e-03 1.31e-02h  1
iter    objective    inf_pr   inf_du lg(mu)  ||d||  lg(rg) alpha_du alpha_pr  ls
  30r-4.4237514e-02 3.11e-01 9.99e+02  -0.5 0.00e+00    -  0.00e+00 2.95e-08R  2
  31r-4.4238134e-02 3.11e-01 3.37e+03  -0.5 2.97e+03    -  8.67e-05 5.03e-07f  1
  32r-4.4238134e-02 3.11e-01 9.99e+02  -0.5 0.00e+00    -  0.00e+00 2.10e-07R  2
  33r-4.4238169e-02 3.11e-01 9.99e+02  -0.5 2.83e+03    -  9.88e-06 2.55e-07f  2
  34 -4.4238069e-02 3.11e-01 1.55e+03  -6.0 9.14e+01    -  1.20e-01 7.75e-05h  1
  35 -4.4220503e-02 3.11e-01 2.47e+04  -6.0 8.24e+02    -  7.65e-03 5.62e-04h  1
  36 -4.4088262e-02 3.09e-01 2.99e+04  -6.0 7.82e+02    -  7.48e-03 5.15e-03h  1
  37 -4.4081687e-02 3.09e-01 6.77e+04  -6.0 8.37e+02    -  2.70e-02 2.15e-04h  2
  38 -4.4077390e-02 3.09e-01 7.50e+04  -6.0 8.61e+02    -  2.78e-02 2.68e-04h  7
  39 -4.4076907e-02 3.09e-01 7.76e+04  -6.0 8.61e+02    -  2.90e-02 3.33e-05h 10
iter    objective    inf_pr   inf_du lg(mu)  ||d||  lg(rg) alpha_du alpha_pr  ls
  40 -4.3824671e-02 3.04e-01 7.63e+04  -6.0 8.60e+02    -  1.70e-02 1.70e-02s 17
  41r-4.3824671e-02 3.04e-01 1.00e+03  -0.5 0.00e+00    -  0.00e+00 0.00e+00R  1
  42r-4.3825158e-02 3.04e-01 3.38e+03  -0.5 3.08e+03    -  8.97e-05 2.78e-07f  1
  43r-3.4938426e-02 2.83e-01 3.14e+04  -0.5 2.53e+03    -  1.59e-05 2.87e-04f  1
  44r-3.4889677e-02 2.83e-01 1.02e+05  -0.5 4.65e-02   6.0 1.11e-02 7.85e-04f  1
  45r-3.3683491e-02 1.39e-01 1.01e+05  -0.5 4.31e+02    -  7.13e-03 4.45e-03f  1
  46 -3.3702259e-02 1.39e-01 7.29e+00  -6.0 3.09e+01    -  1.51e-02 1.83e-03h  1
  47r-3.3702259e-02 1.39e-01 9.99e+02  -1.9 0.00e+00    -  0.00e+00 3.07e-07R  6
  48r-3.3682922e-02 1.39e-01 2.86e+03  -1.9 2.93e+02    -  7.49e-03 4.40e-05f  1
  49 -3.3683595e-02 1.39e-01 7.30e+05  -6.0 3.15e+01    -  6.39e-02 6.60e-05h  1
iter    objective    inf_pr   inf_du lg(mu)  ||d||  lg(rg) alpha_du alpha_pr  ls
  50 -3.3683758e-02 1.39e-01 3.05e+06  -6.0 1.05e+03    -  8.14e-05 3.40e-04h  1
  51 -3.3675848e-02 1.39e-01 3.05e+06  -6.0 1.17e+03    -  5.46e-03 4.90e-04h  1
  52 -3.3661481e-02 1.37e-01 3.04e+06  -6.0 1.07e+03    -  9.63e-04 5.83e-03h  2
  53 -3.3639597e-02 1.36e-01 3.02e+06  -6.0 9.57e+02    -  5.38e-02 6.68e-03h  2
  54 -3.3659083e-02 1.35e-01 3.00e+06  -6.0 8.83e+02    -  1.51e-02 7.19e-03h  4
  55 -3.3677251e-02 1.34e-01 2.98e+06  -6.0 8.13e+02    -  7.37e-02 7.38e-03h  4
  56 -3.3690923e-02 1.33e-01 2.95e+06  -6.0 7.58e+02    -  3.81e-02 7.45e-03h  4
  57 -3.3700883e-02 1.32e-01 2.93e+06  -6.0 7.10e+02    -  9.58e-02 7.43e-03h  4
  58 -3.3703796e-02 1.31e-01 2.91e+06  -6.0 6.69e+02    -  6.63e-02 7.32e-03h  4
  59 -3.3702458e-02 1.30e-01 2.89e+06  -6.0 6.34e+02    -  1.23e-01 7.13e-03h  4
iter    objective    inf_pr   inf_du lg(mu)  ||d||  lg(rg) alpha_du alpha_pr  ls
  60 -3.3694224e-02 1.29e-01 2.87e+06  -6.0 6.04e+02    -  9.34e-02 6.89e-03h  4
  61 -3.3681235e-02 1.28e-01 2.85e+06  -6.0 5.76e+02    -  1.52e-01 6.61e-03h  4
  62 -3.3510712e-02 1.22e-01 2.71e+06  -6.0 5.50e+02    -  1.17e-01 5.03e-02w  1
  63 -3.3509569e-02 1.22e-01 4.03e+06  -6.0 2.67e+03    -  1.84e-02 2.32e-05w  1
  64 -3.1029472e-02 7.76e-01 1.18e+07  -6.0 2.60e+03    -  8.51e-02 4.68e-02w  1
  65 -3.3659919e-02 1.28e-01 2.83e+06  -6.0 2.06e+03    -  1.17e-01 6.29e-03h  3
  66 -3.3631353e-02 1.27e-01 2.82e+06  -6.0 5.25e+02    -  1.15e-01 5.96e-03h  4
  67 -3.3593144e-02 1.26e-01 2.80e+06  -6.0 4.96e+02    -  2.08e-01 5.62e-03h  4
  68 -3.3544001e-02 1.25e-01 2.79e+06  -6.0 4.53e+02    -  7.55e-02 5.32e-03h  4
  69 -3.3489428e-02 1.25e-01 2.77e+06  -6.0 5.07e+02    -  1.98e-01 5.05e-03h  4
iter    objective    inf_pr   inf_du lg(mu)  ||d||  lg(rg) alpha_du alpha_pr  ls
  70 -3.3461722e-02 1.25e-01 2.77e+06  -6.0 1.03e+03    -  4.73e-02 1.43e-03h  6
  71 -3.3439878e-02 1.24e-01 9.72e+06  -6.0 1.47e+03    -  1.50e-01 8.62e-04h  7
  72 -3.3424483e-02 1.24e-01 1.19e+07  -6.0 2.53e+03    -  2.91e-02 4.43e-04h  9
  73 -3.3415422e-02 1.24e-01 2.77e+07  -6.0 2.67e+03    -  1.99e-01 2.59e-04h 10
  74 -3.3408219e-02 1.24e-01 2.98e+07  -6.0 3.19e+03    -  2.98e-02 2.35e-04h 11
  75 -2.6196835e-02 2.02e+01 1.87e+07  -6.0 3.23e+03    -  1.81e-01 2.43e-01w  1
  76 -2.4161244e-02 1.73e+01 1.46e+07  -6.0 5.96e+02    -  2.02e-04 1.55e-01w  1
  77 -2.3843821e-02 1.63e+01 1.42e+07  -6.0 4.18e+02    -  3.24e-03 5.61e-02w  1
  78 -3.3401176e-02 1.24e-01 4.27e+07  -6.0 4.07e+02    -  1.81e-01 2.37e-04h 10
  79 -3.3389715e-02 1.24e-01 4.48e+07  -6.0 3.38e+03    -  3.55e-02 4.71e-04h 10
iter    objective    inf_pr   inf_du lg(mu)  ||d||  lg(rg) alpha_du alpha_pr  ls
  80 -3.3378622e-02 1.24e-01 5.56e+07  -6.0 3.38e+03    -  1.74e-01 4.68e-04h 10
  81 -3.3368984e-02 1.24e-01 5.83e+07  -6.0 3.41e+03    -  4.28e-02 4.62e-04h 10
  82 -3.3359432e-02 1.24e-01 7.55e+07  -6.0 3.39e+03    -  2.59e-01 4.63e-04h 10
  83 -3.3341127e-02 1.24e-01 8.00e+07  -6.0 3.32e+03    -  5.17e-02 9.39e-04h  9
  84 -3.3321992e-02 1.24e-01 1.04e+08  -6.0 3.26e+03    -  2.44e-01 9.48e-04h  9
  85 -3.3298474e-02 1.24e-01 1.07e+08  -6.0 3.08e+03    -  1.83e-02 7.93e-04h  9
  86 -3.3283673e-02 1.24e-01 1.48e+08  -6.0 3.03e+03    -  2.51e-01 3.12e-04h 10
  87 -3.3271170e-02 1.24e-01 1.51e+08  -6.0 2.86e+03    -  9.35e-03 2.93e-04h 10
  88 -2.7015384e-02 4.29e+01 1.31e+08  -6.0 2.84e+03    -  1.59e-01 1.51e-01w  1
  89 -3.0318268e-02 3.90e+01 1.14e+08  -6.0 1.34e+03    -  1.30e-01 1.22e-01w  1
iter    objective    inf_pr   inf_du lg(mu)  ||d||  lg(rg) alpha_du alpha_pr  ls
  90 -3.0688753e-02 4.11e+01 1.10e+08  -6.0 1.08e+03    -  1.88e-01 3.97e-02w  1
  91 -3.3258951e-02 1.24e-01 1.93e+08  -6.0 1.10e+03    -  1.59e-01 2.95e-04h  9
  92 -3.3255086e-02 1.24e-01 2.50e+08  -6.0 3.36e+03    -  1.60e-01 1.80e-04h 10
  93 -3.3255787e-02 1.24e-01 3.00e+08  -6.0 4.83e+03    -  1.07e-01 2.16e-04h  6
  94 -3.3256792e-02 1.24e-01 3.60e+08  -6.0 6.18e+03    -  1.07e-01 2.68e-04h  5
  95 -3.3253298e-02 1.24e-01 4.49e+08  -6.0 8.68e+03    -  1.35e-01 2.45e-04h  5
  96 -3.3230923e-02 1.23e-01 5.49e+08  -6.0 1.36e+04    -  1.25e-01 4.92e-04h  6
  97 -3.3211458e-02 1.23e-01 6.11e+08  -6.0 2.12e+04    -  6.69e-02 1.94e-04h  7
  98  1.2789008e-01 1.23e-01 6.10e+08  -6.0 2.13e+04    -  1.70e-06 2.22e-04h  7
  99  1.0230130e+00 1.23e-01 6.10e+08  -6.0 1.13e+04    -  7.02e-05 3.75e-04h  7
iter    objective    inf_pr   inf_du lg(mu)  ||d||  lg(rg) alpha_du alpha_pr  ls
 100  1.2421757e+00 1.23e-01 6.13e+08  -6.0 1.14e+04    -  2.87e-02 9.21e-05h  9
 101  6.3438434e+01 2.21e+01 5.95e+08  -6.0 1.14e+04    -  5.44e-04 2.60e-02w  1
 102  7.8934963e+01 2.23e+01 6.41e+08  -6.0 1.21e+04    -  9.88e-02 9.05e-03w  1
 103  3.7550138e+02 1.71e+02 4.56e+08  -6.0 1.51e+04    -  7.50e-02 1.83e-01w  1
 104  1.4851299e+00 1.23e-01 6.13e+08  -6.0 1.16e+04    -  5.44e-04 1.02e-04h  8
 105  1.7277777e+00 1.23e-01 6.20e+08  -6.0 1.14e+04    -  6.83e-02 1.02e-04h  9
 106  2.0891996e+00 1.23e-01 6.20e+08  -6.0 1.12e+04    -  7.41e-04 1.50e-04h  9
 107  2.4517963e+00 1.23e-01 6.27e+08  -6.0 1.13e+04    -  6.93e-02 1.51e-04h  9
 108  2.7717329e+00 1.23e-01 6.27e+08  -6.0 1.11e+04    -  1.05e-03 1.33e-04h 10
 109  3.0935795e+00 1.23e-01 6.45e+08  -6.0 1.11e+04    -  1.71e-01 1.34e-04h 10
iter    objective    inf_pr   inf_du lg(mu)  ||d||  lg(rg) alpha_du alpha_pr  ls
 110  3.7243289e+00 1.23e-01 6.45e+08  -6.0 1.21e+04    -  1.32e-03 2.64e-04h 10
 111  4.0432072e+00 1.23e-01 6.59e+08  -6.0 1.22e+04    -  1.24e-01 1.34e-04h 11
 112  4.2207692e+00 1.23e-01 6.59e+08  -6.0 1.42e+04    -  1.75e-03 7.52e-05h 12
 113  4.3099569e+00 1.23e-01 6.81e+08  -6.0 1.42e+04    -  1.93e-01 3.78e-05h 13
 114  3.8780999e+02 7.89e+02 5.49e+08  -6.0 1.76e+04    -  1.90e-03 1.66e-01w  1
 115  3.9255097e+02 7.49e+02 3.82e+08  -6.0 1.90e+04    -  5.14e-05 5.07e-02w  1
 116  3.8376313e+02 7.47e+02 3.72e+08  -6.0 4.28e+04    -  3.28e-07 2.73e-03w  1
 117  4.4035848e+00 1.23e-01 6.81e+08  -6.0 4.16e+04    -  1.90e-03 4.05e-05h 12
 118  4.4972717e+00 1.23e-01 6.97e+08  -6.0 1.76e+04    -  1.23e-01 4.06e-05h 13
 119  4.5870525e+00 1.23e-01 6.97e+08  -6.0 1.97e+04    -  2.03e-03 3.96e-05h 13
iter    objective    inf_pr   inf_du lg(mu)  ||d||  lg(rg) alpha_du alpha_pr  ls
 120  4.6765686e+00 1.23e-01 7.17e+08  -6.0 1.97e+04    -  1.41e-01 3.95e-05h 13
 121  4.7546065e+00 1.23e-01 7.17e+08  -6.0 2.20e+04    -  2.16e-03 3.54e-05h 13
 122  4.8324339e+00 1.23e-01 7.41e+08  -6.0 2.21e+04    -  1.45e-01 3.53e-05h 13
 123  4.8666338e+00 1.23e-01 7.41e+08  -6.0 2.43e+04    -  2.31e-03 1.60e-05h 14
 124  4.9007571e+00 1.23e-01 7.42e+08  -6.0 2.44e+04    -  4.78e-03 1.60e-05h 14
 125  4.9347321e+00 1.23e-01 7.43e+08  -6.0 2.44e+04    -  4.46e-03 1.59e-05h 14
 126  4.9685690e+00 1.23e-01 7.55e+08  -6.0 2.45e+04    -  5.80e-02 1.59e-05h 14
 127  2.6897124e+02 3.68e+02 6.33e+08  -6.0 2.53e+04    -  2.49e-03 1.26e-01w  1
 128  2.6896794e+02 3.68e+02 6.42e+08  -6.0 4.81e+04    -  4.45e-03 6.20e-06w  1
 129  2.5115964e+02 3.52e+02 5.60e+08  -6.0 4.31e+04    -  1.50e-02 4.37e-02w  1
iter    objective    inf_pr   inf_du lg(mu)  ||d||  lg(rg) alpha_du alpha_pr  ls
 130  1.0176483e+01 1.51e-01 7.53e+08  -6.0 1.09e+05    -  2.49e-03 2.49e-03s 41
 131r 1.0176483e+01 1.51e-01 1.00e+03  -1.6 0.00e+00    -  0.00e+00 0.00e+00R  1
 132r 1.0178419e+01 1.47e-01 1.03e+03  -1.6 7.72e+02    -  2.16e-04 9.01e-05f  1
 133r 1.0180515e+01 1.23e-01 2.92e+03  -1.6 7.48e+02    -  5.31e-03 7.67e-04f  1
 134r 1.0210503e+01 1.25e-01 2.28e+03  -1.6 5.67e+02    -  3.45e-03 6.54e-03f  1
 135  1.0208300e+01 1.25e-01 3.45e+02  -6.0 3.16e+01    -  7.47e-02 2.16e-04h  1
 136  1.0192378e+01 1.25e-01 1.63e+04  -6.0 3.92e+02    -  6.07e-02 1.64e-03f  1
 137  1.0191506e+01 1.25e-01 3.34e+04  -6.0 3.90e+02    -  8.84e-02 8.78e-05h  1
 138  9.5622058e+00 1.15e-01 4.02e+04  -6.0 4.18e+02    -  1.31e-01 6.18e-02f  1
 139  9.5622050e+00 1.15e-01 6.89e+06  -6.0 9.72e+02    -  7.96e-02 1.02e-07h  2
iter    objective    inf_pr   inf_du lg(mu)  ||d||  lg(rg) alpha_du alpha_pr  ls
 140  9.4817352e+00 1.13e-01 2.77e+07  -6.0 1.70e+03    -  1.40e-01 1.05e-02f  3
 141  9.3836599e+00 1.12e-01 2.81e+07  -6.0 1.57e+03    -  1.85e-02 1.20e-02f  4
 142  9.3292470e+00 1.11e-01 4.63e+07  -6.0 1.50e+03    -  1.70e-01 6.63e-03f  5
 143  9.2484461e+00 1.10e-01 4.89e+07  -6.0 1.44e+03    -  4.95e-02 9.45e-03f  5
 144  9.2087857e+00 1.10e-01 6.20e+07  -6.0 1.39e+03    -  1.93e-01 4.62e-03f  6
 145  8.0098772e+00 1.35e+00 5.12e+07  -6.0 1.36e+03    -  8.54e-02 1.37e-01f  1
 146  6.7662301e+00 4.93e+00 5.20e+07  -6.0 6.14e+02    -  2.47e-01 1.76e-01f  1
 147  5.9152858e+00 4.40e+00 5.24e+07  -6.0 5.26e+02    -  5.18e-01 1.17e-01f  1
 148  3.8143462e+00 5.61e+00 3.82e+07  -6.0 4.25e+02    -  4.31e-01 3.60e-01f  1
 149  2.8951731e+00 5.73e+00 2.94e+07  -6.0 2.27e+02    -  2.23e-01 2.12e-01h  1
iter    objective    inf_pr   inf_du lg(mu)  ||d||  lg(rg) alpha_du alpha_pr  ls
 150  2.4027584e+00 5.38e+00 2.43e+07  -6.0 1.60e+02    -  1.70e-01 1.57e-01h  1
 151  2.1532005e+00 5.04e+00 1.15e+07  -6.0 1.23e+02    -  3.63e-01 9.67e-02h  1
 152  2.0643182e+00 4.73e+00 1.14e+07  -6.0 4.65e+02  -4.5 2.55e-04 3.94e-02h  1
 153  8.0436579e-01 9.60e+00 8.33e+06  -6.0 9.98e+01    -  4.14e-01 5.82e-01h  1
 154  1.8351367e-01 3.22e+00 4.06e+06  -6.0 7.05e+01    -  2.28e-01 7.37e-01h  1
 155  9.6195337e-02 2.23e+00 6.74e+07  -6.0 2.04e+02    -  2.63e-02 4.14e-01h  1
 156  8.3634339e-02 2.30e+00 1.67e+08  -6.0 3.52e+02    -  2.98e-04 9.92e-02f  1
 157  8.1062382e-02 2.40e+00 1.40e+08  -6.0 2.87e+03    -  1.95e-02 1.06e-02f  1
 158  7.9753544e-02 3.54e+00 1.63e+08  -6.0 5.63e+02    -  1.28e-04 1.20e-02h  1
 159  6.6651638e-02 3.38e+00 3.80e+08  -6.0 5.68e+02    -  1.53e-02 1.11e-01h  1
iter    objective    inf_pr   inf_du lg(mu)  ||d||  lg(rg) alpha_du alpha_pr  ls
 160  5.6703101e-02 4.85e+00 3.38e+08  -6.0 6.50e+02    -  1.43e-02 1.09e-01h  1
 161  4.2591774e-02 5.40e+00 2.81e+08  -6.0 5.07e+01  -4.1 7.91e-06 1.69e-01h  1
 162 -2.6091889e-02 3.12e+00 1.55e+06  -6.0 1.07e+01  -3.6 3.10e-01 9.96e-01h  1
 163 -2.6232256e-02 2.39e+00 1.18e+06  -6.0 1.90e+01  -4.1 4.14e-01 2.37e-01h  1
 164 -2.6431433e-02 3.54e-03 4.52e+05  -6.0 1.62e+00  -3.7 2.44e-01 1.00e+00h  1
 165 -2.6889819e-02 7.88e-03 8.48e+03  -6.0 9.54e+00    -  7.71e-01 1.00e+00h  1
 166 -2.9020644e-02 9.16e-02 1.76e+02  -6.0 3.97e+01    -  6.56e-01 1.00e+00h  1
 167 -3.2089839e-02 2.00e-01 1.09e+02  -6.0 1.36e+02    -  2.79e-01 3.89e-01h  1
 168 -4.0530612e-02 1.38e+00 6.24e+04  -6.0 2.15e+02    -  3.86e-01 1.00e+00h  1
 169 -4.0683850e-02 1.20e+00 5.53e+04  -6.0 3.17e+00  -4.2 1.58e-01 1.28e-01h  1
iter    objective    inf_pr   inf_du lg(mu)  ||d||  lg(rg) alpha_du alpha_pr  ls
 170 -4.1756207e-02 2.37e-01 8.88e+03  -6.0 2.96e+00  -4.6 5.16e-02 8.03e-01h  1
 171 -4.2738889e-02 2.55e-02 2.00e+04  -6.0 3.91e+00  -5.1 2.98e-01 1.00e+00h  1
 172 -4.3777448e-02 5.20e-02 1.46e+04  -6.0 1.64e+01  -5.6 2.40e-01 1.50e-01h  1
 173 -5.1448589e-02 2.67e+00 1.91e+04  -6.0 3.17e+01  -6.1 7.95e-02 6.09e-01f  1
 174 -5.2154817e-02 2.60e+00 4.06e+03  -6.0 9.58e+01  -6.5 3.90e-01 3.57e-02h  1
 175 -5.3490917e-02 2.56e+00 3.55e+03  -6.0 3.57e+02  -7.0 1.51e-01 2.55e-02h  1
 176 -6.1770520e-02 3.10e+00 3.21e+03  -6.0 9.03e+02  -7.5 2.53e-02 9.57e-02h  1
 177 -6.5038342e-02 3.27e+00 3.06e+03  -6.0 1.80e+03    -  5.54e-03 4.62e-02h  1
 178 -7.3027545e-02 4.94e+00 7.50e+03  -6.0 1.37e+03    -  4.64e-02 1.52e-01h  1
 179 -7.6311369e-02 4.66e+00 7.06e+03  -6.0 6.94e+02  -8.0 9.83e-02 1.03e-01h  1
iter    objective    inf_pr   inf_du lg(mu)  ||d||  lg(rg) alpha_du alpha_pr  ls
 180 -8.1588698e-02 5.29e+00 2.93e+03  -6.0 2.04e+03    -  1.43e-01 1.08e-01h  1
 181 -8.8894080e-02 6.51e+00 4.59e+03  -6.0 2.82e+03    -  9.44e-02 1.10e-01h  1
 182 -9.9966934e-02 9.84e+00 2.73e+03  -6.0 2.27e+03    -  2.43e-01 1.98e-01h  1
 183 -1.0018377e-01 9.84e+00 2.76e+03  -6.0 2.14e+05  -8.4 5.14e-04 3.59e-04h  1
 184 -1.0125997e-01 9.74e+00 1.57e+03  -6.0 2.91e+03    -  1.06e-02 1.84e-02h  1
 185 -1.0359986e-01 9.25e+00 5.36e+03  -6.0 1.57e+03    -  5.68e-02 9.52e-02h  1
 186 -1.0522443e-01 9.03e+00 3.07e+04  -6.0 1.75e+03    -  2.18e-01 6.84e-02h  1
 187 -1.0565019e-01 8.87e+00 6.32e+04  -6.0 1.64e+03    -  1.52e-01 2.27e-02h  1
 188 -1.0622309e-01 8.46e+00 8.75e+04  -6.0 1.16e+03    -  1.74e-01 5.23e-02h  1
 189 -1.0914698e-01 1.11e+01 5.15e+04  -6.0 3.85e+03    -  1.10e-01 1.77e-01h  1
iter    objective    inf_pr   inf_du lg(mu)  ||d||  lg(rg) alpha_du alpha_pr  ls
 190 -1.1221292e-01 8.11e+00 2.85e+04  -6.0 8.77e+02    -  1.77e-01 2.70e-01h  1
 191r-1.1221292e-01 8.11e+00 1.00e+03   0.8 0.00e+00    -  0.00e+00 4.40e-07R  3
 192r-1.1229789e-01 8.10e+00 1.31e+05   0.8 5.19e+04    -  9.83e-07 4.29e-07f  1
 193 -1.1230803e-01 8.06e+00 7.78e+01  -6.0 5.58e+02    -  4.81e-03 5.43e-03h  1
 194 -1.1230588e-01 7.98e+00 9.79e+01  -6.0 6.37e+01    -  6.44e-02 9.23e-03h  1
 195 -1.1228410e-01 7.70e+00 8.63e+01  -6.0 5.31e+01    -  1.27e-02 3.55e-02h  1
 196 -1.1225314e-01 7.33e+00 1.05e+02  -6.0 4.95e+01    -  1.13e-01 4.78e-02h  1
 197 -1.1208675e-01 5.20e+00 1.13e+02  -6.0 3.72e+01    -  1.54e-01 2.91e-01h  1
 198 -1.1189213e-01 1.79e+00 1.10e+02  -6.0 1.57e+01    -  1.90e-01 6.55e-01h  1
 199 -1.1185912e-01 9.66e-01 4.12e+01  -6.0 4.12e+00    -  8.05e-01 4.61e-01h  1
iter    objective    inf_pr   inf_du lg(mu)  ||d||  lg(rg) alpha_du alpha_pr  ls
 200 -1.1183914e-01 3.70e-03 2.49e+02  -6.0 2.51e+00    -  9.37e-01 1.00e+00h  1
 201 -1.1200022e-01 2.19e-03 1.68e+02  -6.0 5.68e+00    -  6.84e-01 3.34e-01h  1
 202 -1.1248842e-01 8.69e-03 1.04e+02  -6.0 1.51e+01    -  7.13e-01 3.88e-01f  1
 203 -1.1278993e-01 1.04e-02 9.23e+01  -6.0 3.91e+01    -  6.97e-01 1.11e-01h  1
 204 -1.1351839e-01 4.23e-02 6.28e+01  -6.0 4.21e+01  -7.1 1.58e-01 3.24e-01h  1
 205 -1.1394697e-01 6.07e-02 1.05e+02  -6.0 8.96e+01    -  8.96e-01 2.53e-01h  1
 206 -1.1437698e-01 2.64e-01 1.01e+02  -6.0 7.18e+01  -7.6 6.88e-01 2.50e-01h  1
 207 -1.1562769e-01 2.31e-01 9.51e+01  -6.0 1.93e+02  -8.1 9.62e-01 4.86e-01h  1
 208 -1.1758754e-01 8.86e-01 8.15e+01  -6.0 4.04e+02  -8.5 6.45e-01 5.38e-01h  1
 209 -1.1771274e-01 3.23e-01 1.39e+02  -6.0 4.10e+01  -7.2 1.00e+00 6.40e-01h  1
iter    objective    inf_pr   inf_du lg(mu)  ||d||  lg(rg) alpha_du alpha_pr  ls
 210 -1.1830225e-01 3.38e-01 8.80e+01  -6.0 1.00e+02  -7.7 7.38e-01 9.26e-01h  1
 211 -1.1916715e-01 4.27e-01 1.36e+02  -6.0 2.29e+02  -8.2 5.48e-01 6.17e-01h  1
 212 -1.2057725e-01 1.12e+00 1.10e+03  -6.0 4.56e+02  -8.7 1.00e+00 4.89e-01h  1
 213 -1.2284548e-01 9.34e+00 5.89e+02  -6.0 1.43e+03  -9.1 4.46e-01 4.52e-01h  1
 214 -1.2386517e-01 4.88e+00 1.37e+03  -6.0 4.36e+02  -8.7 1.00e+00 6.50e-01h  1
 215 -1.2521670e-01 1.62e+01 1.98e+03  -6.0 2.37e+03  -9.2 1.49e-01 3.34e-01h  1
 216 -1.2525269e-01 1.57e+01 1.14e+03  -6.0 5.22e+02  -8.8 3.70e-02 2.83e-02h  1
 217 -1.2649705e-01 1.95e+01 5.96e+04  -6.0 2.24e+03  -9.2 1.91e-02 2.93e-01h  1
 218 -1.2647026e-01 1.82e+01 5.54e+04  -6.0 9.12e+02  -8.8 5.36e-02 7.12e-02h  1
 219 -1.2744952e-01 1.49e+01 3.73e+04  -6.0 1.16e+03  -9.3 2.29e-01 3.25e-01h  1
iter    objective    inf_pr   inf_du lg(mu)  ||d||  lg(rg) alpha_du alpha_pr  ls
 220 -1.2739131e-01 1.48e+01 3.68e+04  -6.0 5.52e+03  -8.9 6.99e-03 1.30e-02h  1
 221 -1.2762066e-01 1.37e+01 3.36e+04  -6.0 1.07e+03  -9.3 1.95e-01 8.68e-02h  1
 222 -1.2875141e-01 7.99e+00 6.19e+03  -6.0 6.77e+02  -8.9 1.00e+00 8.17e-01h  1
 223 -1.2938411e-01 1.00e+01 4.26e+03  -6.0 1.61e+03  -9.4 1.62e-01 3.12e-01h  1
 224 -1.2960139e-01 1.20e+00 5.95e+02  -6.0 2.85e+02  -9.0 1.05e-01 1.00e+00h  1
 225 -1.2992748e-01 2.28e+00 4.61e+02  -6.0 1.13e+03  -9.4 4.57e-01 2.33e-01h  1
 226 -1.3038019e-01 1.91e+00 6.88e+01  -6.0 3.17e+02  -9.0 9.41e-02 1.00e+00h  1
 227 -1.3040301e-01 1.59e+00 1.47e+02  -6.0 1.47e+02  -6.8 3.74e-01 1.67e-01h  1
 228 -1.3041120e-01 9.84e-01 1.32e+02  -6.0 1.70e+01  -7.3 3.72e-02 3.82e-01h  1
 229 -1.3043136e-01 7.10e-02 9.47e+01  -6.0 2.94e+01  -7.7 4.48e-01 1.00e+00f  1
iter    objective    inf_pr   inf_du lg(mu)  ||d||  lg(rg) alpha_du alpha_pr  ls
 230 -1.3048970e-01 8.08e-02 5.87e+00  -6.0 4.71e+01  -8.2 1.00e+00 6.67e-01h  1
 231 -1.3060131e-01 7.49e-01 4.39e+00  -6.0 1.29e+02  -8.7 7.00e-01 4.83e-01h  1
 232 -1.3071879e-01 5.74e-01 8.96e+00  -6.0 3.77e+02  -9.2 4.81e-01 2.35e-01h  1
 233 -1.3101575e-01 5.57e-01 2.86e+01  -6.0 1.09e+03  -9.6 7.05e-01 2.01e-01h  1
 234 -1.3164093e-01 1.21e+00 4.89e+00  -6.0 4.24e+02  -9.2 1.00e+00 8.82e-01h  1
 235 -1.3219564e-01 1.80e+00 6.94e+00  -6.0 1.85e+03  -9.7 2.55e-01 2.80e-01h  1
 236 -1.3240490e-01 2.17e+00 4.27e+01  -6.0 9.77e+02  -9.3 8.32e-02 2.05e-01h  1
 237 -1.3281263e-01 1.95e+00 4.88e+01  -6.0 3.16e+03  -9.7 3.05e-01 2.27e-01h  1
 238 -1.3353678e-01 4.79e+00 2.87e+02  -6.0 1.54e+03  -9.3 8.71e-02 4.71e-01h  1
 239 -1.3388004e-01 4.74e+00 5.35e+02  -6.0 2.26e+03  -9.8 8.44e-02 2.38e-01h  1
iter    objective    inf_pr   inf_du lg(mu)  ||d||  lg(rg) alpha_du alpha_pr  ls
 240 -1.3486227e-01 5.16e+00 5.73e+02  -6.0 1.27e+03  -9.4 3.43e-01 5.39e-01h  1
 241 -1.3631562e-01 1.42e+01 3.06e+02  -6.0 2.00e+03  -9.8 2.36e-01 6.84e-01f  1
 242 -1.3656291e-01 1.49e+01 7.20e+02  -6.0 7.63e+02  -8.5 7.11e-02 4.95e-02h  1
 243 -1.3659812e-01 1.41e+01 4.78e+02  -6.0 2.16e+02  -8.1 2.27e-01 6.24e-02h  1
 244 -1.3734526e-01 1.91e+01 2.70e+03  -6.0 4.25e+02  -8.6 1.10e-01 5.11e-01h  1
 245 -1.3697152e-01 3.44e+00 6.56e+01  -6.0 6.17e+01  -8.1 6.50e-01 8.75e-01h  1
 246 -1.3729521e-01 4.19e+00 1.24e+02  -6.0 1.70e+02  -8.6 8.70e-01 1.00e+00h  1
 247 -1.3738628e-01 3.39e-01 2.31e+00  -6.0 1.73e+02  -9.1 1.00e+00 1.00e+00h  1
 248 -1.3763284e-01 1.80e-01 1.07e+00  -6.0 3.31e+02  -9.6 1.00e+00 1.00e+00h  1
 249 -1.3768677e-01 8.25e-02 1.21e-01  -6.0 8.74e+01  -9.1 1.00e+00 1.00e+00h  1
iter    objective    inf_pr   inf_du lg(mu)  ||d||  lg(rg) alpha_du alpha_pr  ls
 250 -1.3775194e-01 2.79e-01 1.14e-01  -6.0 2.15e+02  -9.6 1.00e+00 1.00e+00h  1
 251 -1.3779243e-01 6.47e-01 1.61e-01  -6.0 4.96e+02 -10.1 1.00e+00 1.00e+00h  1
 252 -1.3782531e-01 1.43e+01 4.44e+00  -6.0 1.04e+03 -10.6 8.63e-01 1.00e+00h  1
 253 -1.3780907e-01 2.85e+00 1.95e+00  -6.0 4.43e+02 -10.2 1.00e+00 1.00e+00h  1
 254 -1.3782599e-01 4.28e+01 4.20e+01  -6.0 1.82e+03 -10.6 3.18e-02 1.00e+00H  1
 255 -1.3781007e-01 1.22e+01 2.25e+01  -6.0 2.19e+03    -  4.55e-01 1.00e+00H  1
 256 -1.3779174e-01 7.56e+00 4.64e+01  -6.0 4.20e+03 -11.1 2.80e-01 5.15e-01H  1
 257 -1.3773505e-01 2.58e+00 2.17e+01  -6.0 2.46e+02    -  1.00e+00 1.00e+00h  1
 258 -1.3772936e-01 5.51e+00 2.99e+00  -6.0 8.16e+02    -  8.32e-01 1.00e+00H  1
 259 -1.3773433e-01 2.23e-02 3.90e-01  -6.0 1.35e+01  -8.9 1.00e+00 1.00e+00h  1
iter    objective    inf_pr   inf_du lg(mu)  ||d||  lg(rg) alpha_du alpha_pr  ls
 260 -1.3773136e-01 1.66e-02 5.52e-02  -6.0 2.40e+01    -  1.00e+00 1.00e+00h  1
 261 -1.3773109e-01 4.02e-02 2.22e-03  -6.0 1.74e+01    -  1.00e+00 1.00e+00H  1
 262 -1.3773100e-01 4.93e-02 2.13e+00  -6.0 7.81e+01    -  1.00e+00 1.25e-01h  4
 263 -1.3773068e-01 2.85e-02 9.38e-04  -6.0 1.77e+01    -  1.00e+00 1.00e+00h  1
 264 -1.3773072e-01 2.45e-03 2.09e-04  -6.0 6.73e+00    -  1.00e+00 1.00e+00h  1
 265 -1.3773073e-01 3.74e-05 2.49e-06  -6.0 8.90e-01    -  1.00e+00 1.00e+00h  1
 266 -1.3773073e-01 1.40e-09 8.69e-11  -6.0 5.39e-03    -  1.00e+00 1.00e+00h  1
 267 -1.3823984e-01 6.78e-01 1.28e+01  -7.5 2.62e+03    -  2.17e-01 2.07e-01f  1
 268 -1.3861834e-01 1.10e+00 1.64e+01  -7.5 2.52e+03    -  2.14e-01 2.15e-01h  1
 269 -1.3878612e-01 1.09e+00 3.25e+01  -7.5 2.25e+03    -  3.07e-01 1.34e-01h  1
iter    objective    inf_pr   inf_du lg(mu)  ||d||  lg(rg) alpha_du alpha_pr  ls
 270 -1.3889567e-01 9.64e-01 2.82e+01  -7.5 2.45e+02  -9.4 1.20e-01 1.23e-01h  1
 271 -1.3903603e-01 9.16e-01 4.31e+01  -7.5 7.54e+02  -8.9 2.62e-02 4.69e-02h  1
 272 -1.3911000e-01 8.64e-01 5.91e+01  -7.5 3.97e+02  -9.4 8.07e-02 5.52e-02h  1
 273 -1.3917131e-01 2.19e+01 3.12e+01  -7.5 2.21e+04    -  9.60e-03 5.32e-02h  1
 274 -1.3919315e-01 2.13e+01 3.44e+01  -7.5 2.32e+03    -  1.98e-02 2.99e-02h  1
 275 -1.3954357e-01 2.88e+01 1.71e+02  -7.5 2.06e+03    -  3.51e-02 5.06e-01h  1
 276 -1.3956168e-01 2.72e+01 1.39e+02  -7.5 1.47e+03    -  3.22e-01 5.60e-02h  1
 277 -1.3969742e-01 1.59e+01 8.61e+01  -7.5 1.48e+03    -  1.93e-01 4.45e-01h  1
 278 -1.3970475e-01 1.58e+01 8.51e+01  -7.5 1.28e+03  -9.9 2.08e-02 9.79e-03h  1
 279 -1.3977245e-01 1.38e+01 7.64e+01  -7.5 1.38e+03    -  1.41e-02 1.26e-01h  1
iter    objective    inf_pr   inf_du lg(mu)  ||d||  lg(rg) alpha_du alpha_pr  ls
 280 -1.3977895e-01 1.34e+01 7.02e+01  -7.5 9.66e+02    -  2.34e-01 3.52e-02h  1
 281 -1.3981280e-01 1.10e+01 5.60e+01  -7.5 9.53e+02    -  2.71e-01 1.89e-01h  1
 282 -1.3987014e-01 7.36e+00 3.52e+01  -7.5 7.78e+02    -  3.60e-01 3.73e-01h  1
 283 -1.3995476e-01 7.91e+00 5.67e+01  -7.5 6.89e+02    -  8.45e-02 6.84e-01h  1
 284 -1.3996773e-01 6.84e+00 2.90e+01  -7.5 3.63e+02    -  4.48e-01 1.36e-01h  1
 285 -1.4006387e-01 3.16e+01 5.14e+01  -7.5 1.31e+03    -  4.62e-01 1.00e+00h  1
 286 -1.4011045e-01 1.38e+01 6.19e+01  -7.5 1.66e+01  -7.6 1.12e-01 5.63e-01h  1
 287 -1.4011433e-01 1.35e+01 6.31e+01  -7.5 2.29e+03    -  2.19e-02 3.35e-02h  1
 288 -1.4014425e-01 1.27e+01 3.14e+01  -7.5 1.44e+03    -  3.16e-01 2.67e-01f  1
 289 -1.4022912e-01 1.03e+01 2.27e+02  -7.5 7.40e+02    -  2.87e-01 1.00e+00h  1
iter    objective    inf_pr   inf_du lg(mu)  ||d||  lg(rg) alpha_du alpha_pr  ls
 290 -1.4026947e-01 6.10e+00 9.13e+01  -7.5 3.14e+02    -  4.75e-01 4.43e-01h  1
 291 -1.4027936e-01 5.50e+00 1.31e+03  -7.5 3.81e+02    -  1.00e+00 1.00e-01h  1
 292 -1.4034797e-01 1.62e+01 3.73e+02  -7.5 1.66e+03    -  6.26e-01 6.94e-01h  1
 293 -1.4037393e-01 1.24e+01 2.55e+02  -7.5 4.51e+02    -  2.28e-01 2.37e-01h  1
 294 -1.4042341e-01 5.35e+01 1.12e+03  -7.5 4.73e+03    -  1.39e-01 4.02e-01h  1
 295 -1.4043046e-01 6.87e+01 1.05e+03  -7.5 2.28e+04    -  6.60e-02 5.98e-02h  1
 296 -1.4045023e-01 7.46e+01 2.95e+02  -7.5 1.09e+04    -  3.17e-01 1.30e-01h  1
 297 -1.4045242e-01 7.36e+01 2.64e+03  -7.5 5.23e+03    -  2.65e-02 1.40e-02h  1
 298 -1.4045516e-01 7.09e+01 5.25e+02  -7.5 4.92e+03    -  4.56e-01 4.22e-02h  1
 299 -1.4045538e-01 7.06e+01 2.70e+02  -7.5 1.57e+03    -  1.13e-03 5.12e-03h  1
iter    objective    inf_pr   inf_du lg(mu)  ||d||  lg(rg) alpha_du alpha_pr  ls
 300 -1.4045663e-01 6.84e+01 7.97e+02  -7.5 1.56e+03    -  1.01e-02 3.14e-02h  1
 301 -1.4046285e-01 5.60e+01 3.33e+03  -7.5 1.52e+03    -  6.88e-02 1.81e-01f  1
 302 -1.4049506e-01 3.55e+01 2.88e+02  -7.5 1.65e+03    -  2.90e-01 9.08e-01h  1
 303 -1.4052031e-01 3.45e+01 1.98e+03  -7.5 1.56e+03    -  2.39e-02 1.00e+00h  1
 304 -1.4051939e-01 1.61e+01 9.11e+02  -7.5 6.26e+00  -8.1 1.30e-01 5.34e-01h  1
 305 -1.4051867e-01 2.26e-02 1.22e+01  -7.5 6.46e+00  -8.6 6.61e-01 1.00e+00h  1
 306 -1.4053964e-01 1.76e+01 3.08e+01  -7.5 1.65e+03    -  7.27e-02 6.67e-01h  1
 307 -1.4056313e-01 3.30e+01 4.34e+01  -7.5 1.46e+03    -  5.74e-02 1.00e+00h  1
 308 -1.4056185e-01 1.40e-02 5.03e+00  -7.5 1.83e+01  -9.1 9.26e-01 1.00e+00h  1
 309 -1.4059131e-01 6.09e+01 1.31e+02  -7.5 4.92e+03    -  4.54e-01 3.97e-01h  1
iter    objective    inf_pr   inf_du lg(mu)  ||d||  lg(rg) alpha_du alpha_pr  ls
 310 -1.4058851e-01 5.93e-02 3.32e+01  -7.5 7.06e+01    -  1.17e-01 1.00e+00h  1
 311 -1.4058872e-01 3.56e-03 2.57e-01  -7.5 1.42e+01  -9.6 1.00e+00 1.00e+00h  1
 312 -1.4061253e-01 5.52e+01 1.82e+02  -7.5 3.59e+03    -  1.06e-01 4.95e-01h  1
 313 -1.4061080e-01 5.17e+01 1.70e+02  -7.5 1.93e+03    -  3.32e-01 6.86e-02h  1
 314 -1.4059996e-01 1.11e+01 1.29e+03  -7.5 8.08e+02    -  8.65e-02 1.00e+00h  1
 315 -1.4060044e-01 2.40e-01 2.71e+00  -7.5 5.55e+01    -  9.98e-01 1.00e+00h  1
 316 -1.4061790e-01 3.30e+01 1.29e+02  -7.5 4.66e+03    -  7.21e-02 2.87e-01h  1
 317 -1.4061026e-01 2.29e+01 8.05e+01  -7.5 1.16e+03    -  5.51e-03 5.00e-01h  2
 318 -1.4061019e-01 1.96e-02 5.85e+00  -7.5 2.30e+01 -10.0 4.53e-01 1.00e+00h  1
 319 -1.4061134e-01 1.53e-01 3.32e-01  -7.5 8.92e+01 -10.5 1.00e+00 1.00e+00h  1
iter    objective    inf_pr   inf_du lg(mu)  ||d||  lg(rg) alpha_du alpha_pr  ls
 320 -1.4061962e-01 7.79e+00 3.60e+01  -7.5 6.22e+03    -  1.76e-01 1.01e-01h  1
 321 -1.4061656e-01 1.03e+00 5.83e+00  -7.5 2.34e+02    -  1.00e+00 1.00e+00h  1
 322 -1.4061982e-01 1.20e+00 7.36e+00  -7.5 2.45e+02    -  1.00e+00 1.00e+00h  1
 323 -1.4062007e-01 5.38e-03 4.30e-02  -7.5 1.55e+01    -  1.00e+00 1.00e+00h  1
 324 -1.4062002e-01 2.51e-04 1.63e-03  -7.5 3.54e+00    -  1.00e+00 1.00e+00h  1
 325 -1.4062002e-01 2.19e-08 4.39e-07  -7.5 3.28e-02    -  1.00e+00 1.00e+00h  1
 326 -1.4062002e-01 3.05e-10 3.99e-11  -7.5 5.45e-04    -  1.00e+00 1.00e+00h  1
 327 -1.4062328e-01 9.23e-02 2.40e+00  -9.0 2.59e+02    -  2.88e-01 3.04e-01h  1
 328 -1.4063019e-01 2.10e+01 7.95e+01  -9.0 1.17e+05    -  2.16e-02 8.78e-03h  1
 329 -1.4063790e-01 2.77e+01 1.19e+02  -9.0 3.62e+03    -  1.86e-01 2.32e-01h  1
iter    objective    inf_pr   inf_du lg(mu)  ||d||  lg(rg) alpha_du alpha_pr  ls
 330 -1.4064255e-01 2.74e+01 1.26e+02  -9.0 4.34e+03    -  2.91e-01 1.62e-01h  1
 331 -1.4064967e-01 4.42e+01 1.33e+02  -9.0 3.43e+03    -  3.20e-01 3.66e-01h  1
 332 -1.4065356e-01 4.07e+01 2.54e+01  -9.0 1.55e+03    -  1.00e-02 8.19e-01h  1
 333 -1.4065068e-01 1.55e-01 7.70e+00  -9.0 1.02e+02    -  4.01e-02 1.00e+00h  1
 334 -1.4065131e-01 8.47e-02 7.37e-01  -9.0 6.42e+01    -  1.00e+00 1.00e+00h  1
 335 -1.4065130e-01 2.12e-02 8.98e-02  -9.0 3.23e+01    -  1.00e+00 1.00e+00h  1
 336 -1.4065129e-01 6.76e-08 1.75e-05  -9.0 3.78e-02    -  1.00e+00 1.00e+00h  1
 337 -1.4065129e-01 2.80e-10 2.61e-12  -9.0 2.81e-05    -  1.00e+00 1.00e+00h  1

Number of Iterations....: 337

                                   (scaled)                 (unscaled)
Objective...............:  -1.4065129338037460e-01   -1.4065129338037460e-01
Dual infeasibility......:   2.6068001923729156e-12    2.6068001923729156e-12
Constraint violation....:   2.7968758927778004e-10    2.7968758927778004e-10
Complementarity.........:   9.0909098745595472e-10    9.0909098745595472e-10
Overall NLP error.......:   9.0909098745595472e-10    9.0909098745595472e-10


Number of objective function evaluations             = 1044
Number of objective gradient evaluations             = 326
Number of equality constraint evaluations            = 1044
Number of inequality constraint evaluations          = 1045
Number of equality constraint Jacobian evaluations   = 350
Number of inequality constraint Jacobian evaluations = 350
Number of Lagrangian Hessian evaluations             = 337
Total CPU secs in IPOPT (w/o function evaluations)   =    130.079
Total CPU secs in NLP function evaluations           =      7.449

EXIT: Optimal Solution Found.
